% File represents an instance of a Composite Structure problem to be solved by a CP framework
% Created on 2025-03-26 10:41:51.655
T = 58;
n = 36;
m = 60;
edges = [(2, 1),
(7, 8),
(13, 14),
(19, 20),
(25, 26),
(31, 32),
(2, 3),
(9, 8),
(15, 14),
(21, 20),
(26, 27),
(32, 33),
(4, 3),
(10, 9),
(15, 16),
(21, 22),
(28, 27),
(34, 33),
(4, 5),
(10, 11),
(16, 17),
(23, 22),
(29, 28),
(34, 35),
(6, 5),
(12, 11),
(18, 17),
(24, 23),
(29, 30),
(36, 35),
(7, 1),
(13, 7),
(13, 19),
(19, 25),
(31, 25),
(2, 8),
(14, 8),
(14, 20),
(26, 20),
(32, 26),
(9, 3),
(15, 9),
(15, 21),
(21, 27),
(33, 27),
(10, 4),
(10, 16),
(16, 22),
(28, 22),
(34, 28),
(11, 5),
(11, 17),
(23, 17),
(29, 23),
(29, 35),
(12, 6),
(12, 18),
(24, 18),
(24, 30),
(36, 30)];
counts = [|14, 4, 14, 16,
|14, 6, 14, 16,
|14, 2, 14, 16,
|16, 2, 16, 18,
|14, 2, 14, 18,
|16, 2, 16, 20,
|14, 6, 14, 16,
|14, 2, 14, 16,
|16, 2, 16, 18,
|16, 4, 16, 22,
|16, 2, 16, 20,
|16, 2, 16, 22,
|14, 8, 14, 20,
|14, 6, 14, 18,
|16, 6, 16, 20,
|16, 4, 16, 20,
|16, 2, 16, 16,
|16, 2, 16, 18,
|14, 6, 14, 20,
|14, 4, 14, 16,
|16, 4, 16, 16,
|16, 4, 16, 14,
|16, 4, 16, 18,
|16, 6, 16, 20,
|14, 6, 14, 18,
|14, 6, 14, 16,
|14, 4, 14, 16,
|16, 4, 16, 16,
|16, 6, 16, 18,
|16, 4, 16, 18,
|14, 8, 14, 22,
|14, 8, 14, 18,
|14, 8, 14, 16,
|16, 10, 16, 16,
|16, 6, 16, 16,
|16, 6, 16, 18|];
